30
1 0 53
2 0 13
2 1 57
3 0 10
3 1 5
3 2 31
4 0 16
4 1 18
4 2 71
4 3 16
5 0 71
5 1 9
5 2 45
5 3 6
5 4 49
6 0 66
6 1 36
6 2 22
6 3 7
6 4 16
6 5 61
7 0 71
7 1 16
7 2 13
7 3 24
7 4 59
7 5 72
7 6 58
8 0 8
8 1 3
8 2 59
8 3 19
8 4 44
8 5 24
8 6 7
8 7 2
9 0 65
9 1 77
9 2 31
9 3 35
9 4 24
9 5 36
9 6 4
9 7 58
9 8 56
10 0 71
10 1 70
10 2 47
10 3 72
10 4 47
10 5 10
10 6 13
10 7 39
10 8 6
10 9 50
11 0 48
11 1 3
11 2 17
11 3 30
11 4 65
11 5 14
11 6 54
11 7 63
11 8 1
11 9 8
11 10 74
12 0 27
12 1 64
12 2 11
12 3 28
12 4 28
12 5 20
12 6 37
12 7 29
12 8 17
12 9 19
12 10 9
12 11 26
13 0 6
13 1 56
13 2 75
13 3 75
13 4 5
13 5 68
13 6 74
13 7 24
13 8 37
13 9 33
13 10 23
13 11 53
13 12 29
14 0 29
14 1 15
14 2 68
14 3 52
14 4 67
14 5 70
14 6 50
14 7 51
14 8 11
14 9 56
14 10 50
14 11 28
14 12 1
14 13 21
15 0 47
15 1 38
15 2 48
15 3 62
15 4 77
15 5 42
15 6 65
15 7 6
15 8 20
15 9 39
15 10 74
15 11 23
15 12 36
15 13 26
15 14 59
16 0 58
16 1 55
16 2 64
16 3 41
16 4 58
16 5 64
16 6 55
16 7 51
16 8 37
16 9 30
16 10 31
16 11 54
16 12 69
16 13 56
16 14 14
16 15 7
17 0 23
17 1 32
17 2 80
17 3 13
17 4 39
17 5 77
17 6 35
17 7 51
17 8 10
17 9 21
17 10 78
17 11 78
17 12 57
17 13 57
17 14 4
17 15 55
17 16 72
18 0 74
18 1 35
18 2 64
18 3 32
18 4 64
18 5 65
18 6 29
18 7 75
18 8 33
18 9 49
18 10 71
18 11 11
18 12 18
18 13 44
18 14 67
18 15 10
18 16 43
18 17 38
19 0 50
19 1 24
19 2 75
19 3 27
19 4 64
19 5 40
19 6 34
19 7 32
19 8 29
19 9 55
19 10 37
19 11 9
19 12 26
19 13 49
19 14 77
19 15 19
19 16 2
19 17 23
19 18 4
20 0 78
20 1 65
20 2 19
20 3 8
20 4 34
20 5 2
20 6 46
20 7 44
20 8 46
20 9 39
20 10 71
20 11 12
20 12 37
20 13 71
20 14 71
20 15 71
20 16 32
20 17 64
20 18 60
20 19 63
21 0 32
21 1 14
21 2 34
21 3 16
21 4 6
21 5 41
21 6 27
21 7 18
21 8 59
21 9 17
21 10 25
21 11 46
21 12 39
21 13 51
21 14 44
21 15 75
21 16 29
21 17 80
21 18 15
21 19 45
21 20 8
22 0 2
22 1 41
22 2 54
22 3 68
22 4 1
22 5 2
22 6 9
22 7 77
22 8 71
22 9 68
22 10 78
22 11 63
22 12 10
22 13 26
22 14 34
22 15 73
22 16 69
22 17 50
22 18 71
22 19 41
22 20 35
22 21 50
23 0 13
23 1 40
23 2 14
23 3 61
23 4 30
23 5 67
23 6 24
23 7 26
23 8 48
23 9 9
23 10 12
23 11 21
23 12 62
23 13 18
23 14 9
23 15 70
23 16 8
23 17 68
23 18 75
23 19 54
23 20 1
23 21 74
23 22 34
24 0 26
24 1 46
24 2 41
24 3 48
24 4 40
24 5 65
24 6 42
24 7 63
24 8 5
24 9 20
24 10 31
24 11 27
24 12 69
24 13 60
24 14 41
24 15 68
24 16 9
24 17 33
24 18 16
24 19 9
24 20 5
24 21 17
24 22 25
24 23 18
25 0 42
25 1 36
25 2 64
25 3 35
25 4 33
25 5 21
25 6 12
25 7 60
25 8 25
25 9 73
25 10 79
25 11 42
25 12 73
25 13 33
25 14 46
25 15 23
25 16 42
25 17 66
25 18 10
25 19 49
25 20 25
25 21 15
25 22 61
25 23 79
25 24 67
26 0 1
26 1 73
26 2 56
26 3 75
26 4 62
26 5 26
26 6 23
26 7 23
26 8 62
26 9 72
26 10 25
26 11 72
26 12 30
26 13 15
26 14 6
26 15 46
26 16 35
26 17 13
26 18 67
26 19 6
26 20 46
26 21 57
26 22 57
26 23 30
26 24 26
26 25 58
27 0 71
27 1 37
27 2 43
27 3 80
27 4 29
27 5 29
27 6 48
27 7 14
27 8 5
27 9 34
27 10 15
27 11 37
27 12 78
27 13 15
27 14 46
27 15 76
27 16 70
27 17 10
27 18 8
27 19 42
27 20 50
27 21 13
27 22 63
27 23 75
27 24 12
27 25 73
27 26 45
28 0 47
28 1 49
28 2 69
28 3 45
28 4 53
28 5 30
28 6 79
28 7 19
28 8 11
28 9 61
28 10 42
28 11 40
28 12 56
28 13 55
28 14 75
28 15 78
28 16 18
28 17 50
28 18 25
28 19 17
28 20 72
28 21 60
28 22 44
28 23 22
28 24 68
28 25 64
28 26 24
28 27 13
29 0 57
29 1 23
29 2 38
29 3 75
29 4 72
29 5 10
29 6 43
29 7 53
29 8 16
29 9 43
29 10 22
29 11 20
29 12 1
29 13 10
29 14 46
29 15 79
29 16 33
29 17 20
29 18 20
29 19 35
29 20 69
29 21 15
29 22 19
29 23 60
29 24 20
29 25 56
29 26 45
29 27 58
29 28 36
